examples/dynamic/debug4/MulliganEconomicsModel0026a.smt2
(set-info :smt-lib-version 2.6)
(set-logic QF_NRA)
(set-info :source |
Generated by: Casey Mulligan, Russell Bradford, James H. Davenport, Matthew England, and ZakTonks
Generated on: 2018-04-19
Generator: TheoryGuru
Application: NGM: Slope of the stable manifold, assumption set
Target solver: Z3
|)
(set-info :license "https://creativecommons.org/licenses/by/4.0/")
(set-info :category "industrial")
(set-info :status sat)

; Code written by TheoryGuru
; Mulligan model #0026
;   is part of the example library included in "Quantifier Elimination for Reasoning in Economics" April 2018
;   by Mulligan, Bradford, Davenport, England, and Tonks
;   available at bathpaper.economicreasoning.com .
; Economics background for this and other examples is provided at examples.economicreasoning.com .

(declare-fun v1 () Real)
(declare-fun v2 () Real)
(declare-fun v3 () Real)
(declare-fun v4 () Real)
(declare-fun v5 () Real)
(declare-fun v6 () Real)
(declare-fun v7 () Real)
(declare-fun v8 () Real)
(declare-fun v9 () Real)
(declare-fun v10 () Real)
(declare-fun v11 () Real)
(declare-fun v12 () Real)
(declare-fun v13 () Real)
(declare-fun v14 () Real)
(declare-fun v15 () Real)
(declare-fun v16 () Real)
(declare-fun v17 () Real)
(declare-fun v18 () Real)
(declare-fun v19 () Real)
(declare-fun v20 () Real)

; input assumptions
(define-fun assumptions () Bool (and 
(= (+ (* (- 1) (* v12 v12) v19) (* (* v12 v12) v19 v6) (* v10 v14 v7) (* v10 v13 v8) (* (- 1) (* v12 v12) v17 v8) (* (* v12 v12) v17 v6 v8)) (+ (* v12 v13 v7) (* v11 v12 v8)))
(= (+ (* (- 1) v12 v14 v20) (* v12 v14 v20 v5) (* (- 1) (* v14 v14) v18 v7) (* (* v14 v14) v3 v7) (* (* v14 v14) v4 v7) (* (* v14 v14) v18 v5 v7) (* (- 1) v13 v14 v18 v8) (* (- 1) v12 v14 v19 v8) (* v13 v14 v3 v8) (* v13 v14 v4 v8) (* v13 v14 v18 v5 v8) (* v12 v14 v19 v5 v8)) (+ (* (- 1) v12 v16 v18 v7) (* v12 v16 v3 v7) (* v12 v16 v4 v7) (* v12 v16 v18 v5 v7) (* (- 1) v12 v15 v18 v8) (* v12 v15 v3 v8) (* v12 v15 v4 v8) (* v12 v15 v18 v5 v8)))
(> v12 0)
(< v10 0)
(< v14 0)
(< v11 0)
(> v18 0)
(>= v19 0)
(< v20 0)
(< v17 0)
(>= v3 0)
(> v4 0)
(> v1 0)
(> v2 0)
(< v5 1)
(< v6 1)
(> (* v10 v13) (* v11 v12))
(> (* v10 v14) (* v12 v13))
(= (+ (* v1 v19) (* v17 v2)) 0)
(= (+ (* v19 v2) (* v1 v20)) 0)
(= (* v14 v9) (+ (* (- 1) v12 v18) (* v12 v3) (* v12 v4) (* v12 v18 v5)))
(= v9 0)
))

; input hypothesis
(define-fun hypothesis () Bool (< v7 0))

(assert assumptions)
(check-sat) ; confirming that assumptions are not contradictory

(exit)