z3_origin/MulliganEconomicsModel0026a.txt
sat
(:max-memory          18.53
 :memory              18.43
 :nlsat-arith-var     19
 :nlsat-atoms         40
 :nlsat-bool-var      2
 :nlsat-clauses       30
 :nlsat-conflicts     5
 :nlsat-propagations  40
 :nlsat-stages        27
 :num-allocs          74304
 :rlimit-count        7433
 :solve-eqs-elim-vars 6
 :solve-eqs-steps     41
 :time                0.01
 :total-time          0.02)
